language ESSENCE' 1.0

letting C_FunctionND be
        [[0, 0, 0, 0, 0, 0, 0, 0, 0, 0, 0, 0, 0, 0, 0, 0, 0, 0, 0, 0, 0, 0; int(0..21)],
         [1, 0, 0, 0, 0, 0, 0, 0, 0, 0, 0, 0, 0, 0, 0, 0, 0, 0, 0, 0, 0, 0; int(0..21)],
         [1, 0, 0, 0, 0, 0, 0, 0, 0, 0, 0, 0, 0, 0, 0, 0, 0, 0, 0, 0, 0, 0; int(0..21)],
         [1, 0, 0, 0, 0, 0, 0, 0, 0, 0, 0, 0, 0, 0, 0, 0, 0, 0, 0, 0, 0, 0; int(0..21)],
         [1, 0, 0, 0, 0, 0, 0, 0, 0, 0, 0, 0, 0, 0, 0, 0, 0, 0, 0, 0, 0, 0; int(0..21)],
         [1, 0, 0, 0, 0, 0, 0, 0, 0, 0, 0, 0, 0, 0, 0, 0, 0, 0, 0, 0, 0, 0; int(0..21)],
         [1, 0, 0, 0, 0, 0, 0, 0, 0, 0, 0, 0, 0, 0, 0, 0, 0, 0, 0, 0, 0, 0; int(0..21)],
         [1, 0, 0, 0, 0, 0, 0, 0, 0, 0, 0, 0, 0, 0, 0, 0, 0, 0, 0, 0, 0, 0; int(0..21)],
         [1, 0, 0, 0, 0, 0, 0, 0, 0, 0, 0, 0, 0, 0, 0, 0, 0, 0, 0, 0, 0, 0; int(0..21)],
         [0, 1, 1, 0, 1, 0, 0, 1, 0, 0, 0, 0, 0, 0, 0, 0, 0, 0, 0, 0, 0, 0; int(0..21)],
         [0, 1, 0, 1, 0, 1, 0, 0, 1, 0, 0, 0, 0, 0, 0, 0, 0, 0, 0, 0, 0, 0; int(0..21)],
         [0, 1, 0, 0, 0, 0, 1, 0, 0, 0, 0, 0, 0, 0, 0, 0, 0, 0, 0, 0, 0, 0; int(0..21)],
         [0, 0, 1, 1, 0, 0, 0, 0, 0, 0, 0, 0, 0, 0, 0, 0, 0, 0, 0, 0, 0, 0; int(0..21)],
         [0, 0, 1, 0, 0, 1, 0, 0, 0, 0, 0, 0, 0, 0, 0, 0, 0, 0, 0, 0, 0, 0; int(0..21)],
         [0, 0, 1, 0, 0, 0, 1, 0, 1, 0, 0, 0, 0, 0, 0, 0, 0, 0, 0, 0, 0, 0; int(0..21)],
         [0, 0, 0, 1, 1, 0, 0, 0, 0, 0, 0, 0, 0, 0, 0, 0, 0, 0, 0, 0, 0, 0; int(0..21)],
         [0, 0, 0, 1, 0, 0, 1, 1, 0, 0, 0, 0, 0, 0, 0, 0, 0, 0, 0, 0, 0, 0; int(0..21)],
         [0, 0, 0, 0, 1, 1, 1, 0, 0, 0, 0, 0, 0, 0, 0, 0, 0, 0, 0, 0, 0, 0; int(0..21)],
         [0, 0, 0, 0, 1, 0, 0, 0, 1, 0, 0, 0, 0, 0, 0, 0, 0, 0, 0, 0, 0, 0; int(0..21)],
         [0, 0, 0, 0, 0, 1, 0, 1, 0, 0, 0, 0, 0, 0, 0, 0, 0, 0, 0, 0, 0, 0; int(0..21)],
         [0, 0, 0, 0, 0, 0, 0, 1, 1, 0, 0, 0, 0, 0, 0, 0, 0, 0, 0, 0, 0, 0; int(0..21)],
         [0, 0, 0, 0, 0, 0, 0, 0, 0, 1, 1, 1, 1, 1, 1, 1, 1, 1, 1, 1, 1, 0; int(0..21)];
             int(0..21)]
$ Visualisation for C_FunctionND
$ 0 0 0 0 0 0 0 0 0 0 0 0 0 0 0 0 0 0 0 0 0 0
$ 1 0 0 0 0 0 0 0 0 0 0 0 0 0 0 0 0 0 0 0 0 0
$ 1 0 0 0 0 0 0 0 0 0 0 0 0 0 0 0 0 0 0 0 0 0
$ 1 0 0 0 0 0 0 0 0 0 0 0 0 0 0 0 0 0 0 0 0 0
$ 1 0 0 0 0 0 0 0 0 0 0 0 0 0 0 0 0 0 0 0 0 0
$ 1 0 0 0 0 0 0 0 0 0 0 0 0 0 0 0 0 0 0 0 0 0
$ 1 0 0 0 0 0 0 0 0 0 0 0 0 0 0 0 0 0 0 0 0 0
$ 1 0 0 0 0 0 0 0 0 0 0 0 0 0 0 0 0 0 0 0 0 0
$ 1 0 0 0 0 0 0 0 0 0 0 0 0 0 0 0 0 0 0 0 0 0
$ 0 1 1 0 1 0 0 1 0 0 0 0 0 0 0 0 0 0 0 0 0 0
$ 0 1 0 1 0 1 0 0 1 0 0 0 0 0 0 0 0 0 0 0 0 0
$ 0 1 0 0 0 0 1 0 0 0 0 0 0 0 0 0 0 0 0 0 0 0
$ 0 0 1 1 0 0 0 0 0 0 0 0 0 0 0 0 0 0 0 0 0 0
$ 0 0 1 0 0 1 0 0 0 0 0 0 0 0 0 0 0 0 0 0 0 0
$ 0 0 1 0 0 0 1 0 1 0 0 0 0 0 0 0 0 0 0 0 0 0
$ 0 0 0 1 1 0 0 0 0 0 0 0 0 0 0 0 0 0 0 0 0 0
$ 0 0 0 1 0 0 1 1 0 0 0 0 0 0 0 0 0 0 0 0 0 0
$ 0 0 0 0 1 1 1 0 0 0 0 0 0 0 0 0 0 0 0 0 0 0
$ 0 0 0 0 1 0 0 0 1 0 0 0 0 0 0 0 0 0 0 0 0 0
$ 0 0 0 0 0 1 0 1 0 0 0 0 0 0 0 0 0 0 0 0 0 0
$ 0 0 0 0 0 0 0 1 1 0 0 0 0 0 0 0 0 0 0 0 0 0
$ 0 0 0 0 0 0 0 0 0 1 1 1 1 1 1 1 1 1 1 1 1 0

letting J_FunctionND be
        [[0, 1, 2, 3, 4, 5, 6, 7, 8, 9, 10, 11, 12, 13, 14, 15, 16, 17, 18, 19, 20, 21; int(0..21)],
         [1, 1, 9, 10, 9, 10, 11, 9, 10, 9, 10, 11, 21, 21, 21, 21, 21, 21, 21, 21, 21, 21; int(0..21)],
         [2, 9, 2, 12, 9, 13, 14, 9, 14, 9, 21, 21, 12, 13, 14, 21, 21, 21, 21, 21, 21, 21; int(0..21)],
         [3, 10, 12, 3, 15, 10, 16, 16, 10, 21, 10, 21, 12, 21, 21, 15, 16, 21, 21, 21, 21, 21; int(0..21)],
         [4, 9, 9, 15, 4, 17, 17, 9, 18, 9, 21, 21, 21, 21, 21, 15, 21, 17, 18, 21, 21, 21; int(0..21)],
         [5, 10, 13, 10, 17, 5, 17, 19, 10, 21, 10, 21, 21, 13, 21, 21, 21, 17, 21, 19, 21, 21; int(0..21)],
         [6, 11, 14, 16, 17, 17, 6, 16, 14, 21, 21, 11, 21, 21, 14, 21, 16, 17, 21, 21, 21, 21; int(0..21)],
         [7, 9, 9, 16, 9, 19, 16, 7, 20, 9, 21, 21, 21, 21, 21, 21, 16, 21, 21, 19, 20, 21; int(0..21)],
         [8, 10, 14, 10, 18, 10, 14, 20, 8, 21, 10, 21, 21, 21, 14, 21, 21, 21, 18, 21, 20, 21; int(0..21)],
         [9, 9, 9, 21, 9, 21, 21, 9, 21, 9, 21, 21, 21, 21, 21, 21, 21, 21, 21, 21, 21, 21; int(0..21)],
         [10, 10, 21, 10, 21, 10, 21, 21, 10, 21, 10, 21, 21, 21, 21, 21, 21, 21, 21, 21, 21, 21; int(0..21)],
         [11, 11, 21, 21, 21, 21, 11, 21, 21, 21, 21, 11, 21, 21, 21, 21, 21, 21, 21, 21, 21, 21; int(0..21)],
         [12, 21, 12, 12, 21, 21, 21, 21, 21, 21, 21, 21, 12, 21, 21, 21, 21, 21, 21, 21, 21, 21; int(0..21)],
         [13, 21, 13, 21, 21, 13, 21, 21, 21, 21, 21, 21, 21, 13, 21, 21, 21, 21, 21, 21, 21, 21; int(0..21)],
         [14, 21, 14, 21, 21, 21, 14, 21, 14, 21, 21, 21, 21, 21, 14, 21, 21, 21, 21, 21, 21, 21; int(0..21)],
         [15, 21, 21, 15, 15, 21, 21, 21, 21, 21, 21, 21, 21, 21, 21, 15, 21, 21, 21, 21, 21, 21; int(0..21)],
         [16, 21, 21, 16, 21, 21, 16, 16, 21, 21, 21, 21, 21, 21, 21, 21, 16, 21, 21, 21, 21, 21; int(0..21)],
         [17, 21, 21, 21, 17, 17, 17, 21, 21, 21, 21, 21, 21, 21, 21, 21, 21, 17, 21, 21, 21, 21; int(0..21)],
         [18, 21, 21, 21, 18, 21, 21, 21, 18, 21, 21, 21, 21, 21, 21, 21, 21, 21, 18, 21, 21, 21; int(0..21)],
         [19, 21, 21, 21, 21, 19, 21, 19, 21, 21, 21, 21, 21, 21, 21, 21, 21, 21, 21, 19, 21, 21; int(0..21)],
         [20, 21, 21, 21, 21, 21, 21, 20, 20, 21, 21, 21, 21, 21, 21, 21, 21, 21, 21, 21, 20, 21; int(0..21)],
         [21, 21, 21, 21, 21, 21, 21, 21, 21, 21, 21, 21, 21, 21, 21, 21, 21, 21, 21, 21, 21, 21; int(0..21)];
             int(0..21)]
$ Visualisation for J_FunctionND
$  0  1  2  3  4  5  6  7  8  9 10 11 12 13 14 15 16 17 18 19 20 21
$  1  1  9 10  9 10 11  9 10  9 10 11 21 21 21 21 21 21 21 21 21 21
$  2  9  2 12  9 13 14  9 14  9 21 21 12 13 14 21 21 21 21 21 21 21
$  3 10 12  3 15 10 16 16 10 21 10 21 12 21 21 15 16 21 21 21 21 21
$  4  9  9 15  4 17 17  9 18  9 21 21 21 21 21 15 21 17 18 21 21 21
$  5 10 13 10 17  5 17 19 10 21 10 21 21 13 21 21 21 17 21 19 21 21
$  6 11 14 16 17 17  6 16 14 21 21 11 21 21 14 21 16 17 21 21 21 21
$  7  9  9 16  9 19 16  7 20  9 21 21 21 21 21 21 16 21 21 19 20 21
$  8 10 14 10 18 10 14 20  8 21 10 21 21 21 14 21 21 21 18 21 20 21
$  9  9  9 21  9 21 21  9 21  9 21 21 21 21 21 21 21 21 21 21 21 21
$ 10 10 21 10 21 10 21 21 10 21 10 21 21 21 21 21 21 21 21 21 21 21
$ 11 11 21 21 21 21 11 21 21 21 21 11 21 21 21 21 21 21 21 21 21 21
$ 12 21 12 12 21 21 21 21 21 21 21 21 12 21 21 21 21 21 21 21 21 21
$ 13 21 13 21 21 13 21 21 21 21 21 21 21 13 21 21 21 21 21 21 21 21
$ 14 21 14 21 21 21 14 21 14 21 21 21 21 21 14 21 21 21 21 21 21 21
$ 15 21 21 15 15 21 21 21 21 21 21 21 21 21 21 15 21 21 21 21 21 21
$ 16 21 21 16 21 21 16 16 21 21 21 21 21 21 21 21 16 21 21 21 21 21
$ 17 21 21 21 17 17 17 21 21 21 21 21 21 21 21 21 21 17 21 21 21 21
$ 18 21 21 21 18 21 21 21 18 21 21 21 21 21 21 21 21 21 18 21 21 21
$ 19 21 21 21 21 19 21 19 21 21 21 21 21 21 21 21 21 21 21 19 21 21
$ 20 21 21 21 21 21 21 20 20 21 21 21 21 21 21 21 21 21 21 21 20 21
$ 21 21 21 21 21 21 21 21 21 21 21 21 21 21 21 21 21 21 21 21 21 21

letting M_FunctionND be
        [[0, 0, 0, 0, 0, 0, 0, 0, 0, 0, 0, 0, 0, 0, 0, 0, 0, 0, 0, 0, 0, 0; int(0..21)],
         [0, 1, 0, 0, 0, 0, 0, 0, 0, 1, 1, 1, 0, 0, 0, 0, 0, 0, 0, 0, 0, 1; int(0..21)],
         [0, 0, 2, 0, 0, 0, 0, 0, 0, 2, 0, 0, 2, 2, 2, 0, 0, 0, 0, 0, 0, 2; int(0..21)],
         [0, 0, 0, 3, 0, 0, 0, 0, 0, 0, 3, 0, 3, 0, 0, 3, 3, 0, 0, 0, 0, 3; int(0..21)],
         [0, 0, 0, 0, 4, 0, 0, 0, 0, 4, 0, 0, 0, 0, 0, 4, 0, 4, 4, 0, 0, 4; int(0..21)],
         [0, 0, 0, 0, 0, 5, 0, 0, 0, 0, 5, 0, 0, 5, 0, 0, 0, 5, 0, 5, 0, 5; int(0..21)],
         [0, 0, 0, 0, 0, 0, 6, 0, 0, 0, 0, 6, 0, 0, 6, 0, 6, 6, 0, 0, 0, 6; int(0..21)],
         [0, 0, 0, 0, 0, 0, 0, 7, 0, 7, 0, 0, 0, 0, 0, 0, 7, 0, 0, 7, 7, 7; int(0..21)],
         [0, 0, 0, 0, 0, 0, 0, 0, 8, 0, 8, 0, 0, 0, 8, 0, 0, 0, 8, 0, 8, 8; int(0..21)],
         [0, 1, 2, 0, 4, 0, 0, 7, 0, 9, 1, 1, 2, 2, 2, 4, 7, 4, 4, 7, 7, 9; int(0..21)],
         [0, 1, 0, 3, 0, 5, 0, 0, 8, 1, 10, 1, 3, 5, 8, 3, 3, 5, 8, 5, 8, 10; int(0..21)],
         [0, 1, 0, 0, 0, 0, 6, 0, 0, 1, 1, 11, 0, 0, 6, 0, 6, 6, 0, 0, 0, 11; int(0..21)],
         [0, 0, 2, 3, 0, 0, 0, 0, 0, 2, 3, 0, 12, 2, 2, 3, 3, 0, 0, 0, 0, 12; int(0..21)],
         [0, 0, 2, 0, 0, 5, 0, 0, 0, 2, 5, 0, 2, 13, 2, 0, 0, 5, 0, 5, 0, 13; int(0..21)],
         [0, 0, 2, 0, 0, 0, 6, 0, 8, 2, 8, 6, 2, 2, 14, 0, 6, 6, 8, 0, 8, 14; int(0..21)],
         [0, 0, 0, 3, 4, 0, 0, 0, 0, 4, 3, 0, 3, 0, 0, 15, 3, 4, 4, 0, 0, 15; int(0..21)],
         [0, 0, 0, 3, 0, 0, 6, 7, 0, 7, 3, 6, 3, 0, 6, 3, 16, 6, 0, 7, 7, 16; int(0..21)],
         [0, 0, 0, 0, 4, 5, 6, 0, 0, 4, 5, 6, 0, 5, 6, 4, 6, 17, 4, 5, 0, 17; int(0..21)],
         [0, 0, 0, 0, 4, 0, 0, 0, 8, 4, 8, 0, 0, 0, 8, 4, 0, 4, 18, 0, 8, 18; int(0..21)],
         [0, 0, 0, 0, 0, 5, 0, 7, 0, 7, 5, 0, 0, 5, 0, 0, 7, 5, 0, 19, 7, 19; int(0..21)],
         [0, 0, 0, 0, 0, 0, 0, 7, 8, 7, 8, 0, 0, 0, 8, 0, 7, 0, 8, 7, 20, 20; int(0..21)],
         [0, 1, 2, 3, 4, 5, 6, 7, 8, 9, 10, 11, 12, 13, 14, 15, 16, 17, 18, 19, 20, 21; int(0..21)];
             int(0..21)]
$ Visualisation for M_FunctionND
$  0  0  0  0  0  0  0  0  0  0  0  0  0  0  0  0  0  0  0  0  0  0
$  0  1  0  0  0  0  0  0  0  1  1  1  0  0  0  0  0  0  0  0  0  1
$  0  0  2  0  0  0  0  0  0  2  0  0  2  2  2  0  0  0  0  0  0  2
$  0  0  0  3  0  0  0  0  0  0  3  0  3  0  0  3  3  0  0  0  0  3
$  0  0  0  0  4  0  0  0  0  4  0  0  0  0  0  4  0  4  4  0  0  4
$  0  0  0  0  0  5  0  0  0  0  5  0  0  5  0  0  0  5  0  5  0  5
$  0  0  0  0  0  0  6  0  0  0  0  6  0  0  6  0  6  6  0  0  0  6
$  0  0  0  0  0  0  0  7  0  7  0  0  0  0  0  0  7  0  0  7  7  7
$  0  0  0  0  0  0  0  0  8  0  8  0  0  0  8  0  0  0  8  0  8  8
$  0  1  2  0  4  0  0  7  0  9  1  1  2  2  2  4  7  4  4  7  7  9
$  0  1  0  3  0  5  0  0  8  1 10  1  3  5  8  3  3  5  8  5  8 10
$  0  1  0  0  0  0  6  0  0  1  1 11  0  0  6  0  6  6  0  0  0 11
$  0  0  2  3  0  0  0  0  0  2  3  0 12  2  2  3  3  0  0  0  0 12
$  0  0  2  0  0  5  0  0  0  2  5  0  2 13  2  0  0  5  0  5  0 13
$  0  0  2  0  0  0  6  0  8  2  8  6  2  2 14  0  6  6  8  0  8 14
$  0  0  0  3  4  0  0  0  0  4  3  0  3  0  0 15  3  4  4  0  0 15
$  0  0  0  3  0  0  6  7  0  7  3  6  3  0  6  3 16  6  0  7  7 16
$  0  0  0  0  4  5  6  0  0  4  5  6  0  5  6  4  6 17  4  5  0 17
$  0  0  0  0  4  0  0  0  8  4  8  0  0  0  8  4  0  4 18  0  8 18
$  0  0  0  0  0  5  0  7  0  7  5  0  0  5  0  0  7  5  0 19  7 19
$  0  0  0  0  0  0  0  7  8  7  8  0  0  0  8  0  7  0  8  7 20 20
$  0  1  2  3  4  5  6  7  8  9 10 11 12 13 14 15 16 17 18 19 20 21

letting R_Function1D be [0, 1, 1, 1, 1, 1, 1, 1, 1, 2, 2, 2, 2, 2, 2, 2, 2, 2, 2, 2, 2, 3; int(0..21)]
